[on. 05. april 09:00:54 +0200 2023]  ./input/alternate_g_np_100/100-1-2.gcc
Set parameter Username
Academic license - for non-commercial use only - expires 2024-03-28
Set parameter TimeLimit to value 1800
Set parameter PreCrush to value 1
Set parameter LazyConstraints to value 1
Gurobi Optimizer version 10.0.1 build v10.0.1rc0 (linux64)

CPU model: AMD Ryzen 9 5950X 16-Core Processor, instruction set [SSE2|AVX|AVX2]
Thread count: 16 physical cores, 32 logical processors, using up to 32 threads

Optimize a model with 106 rows, 700 columns and 1900 nonzeros
Model fingerprint: 0x759128c1
Variable types: 0 continuous, 700 integer (700 binary)
Coefficient statistics:
  Matrix range     [1e+00, 1e+00]
  Objective range  [2e+00, 1e+02]
  Bounds range     [1e+00, 1e+00]
  RHS range        [1e+00, 1e+00]
Presolve added 5 rows and 5 columns
Presolve time: 0.00s
Presolved: 111 rows, 705 columns, 1415 nonzeros
Variable types: 0 continuous, 705 integer (700 binary)

Root relaxation: objective 5.007000e+03, 1 iterations, 0.00 seconds (0.00 work units)

    Nodes    |    Current Node    |     Objective Bounds      |     Work
 Expl Unexpl |  Obj  Depth IntInf | Incumbent    BestBd   Gap | It/Node Time

     0     0 5007.00000    0    -          - 5007.00000      -     -    0s
     0     0 5007.00000    0    -          - 5007.00000      -     -    0s
     0     0 5007.00000    0    -          - 5007.00000      -     -    0s
     0     0 5007.00000    0    -          - 5007.00000      -     -    0s
     0     0 5007.00000    0    -          - 5007.00000      -     -    0s
     0     0 5007.00000    0    8          - 5007.00000      -     -    0s
     0     0 5007.00000    0   17          - 5007.00000      -     -    0s
     0     0 2915.00000    0    -          - 2915.00000      -     -    0s
     0     0 2915.00000    0    4          - 2915.00000      -     -    0s
     0     0 2909.00000    0   15          - 2909.00000      -     -    0s
     0     0 2861.00000    0   15          - 2861.00000      -     -    0s
     0     2 2838.40000    0   34          - 2838.40000      -     -    0s
H 2163  1856                    1717.0000000 1853.08741  7.93%  56.0    2s
H 2163  1762                    1737.0000000 1853.08741  6.68%  56.0    2s
H 2163  1674                    1752.0000000 1853.08741  5.77%  56.0    2s
H 2177  1599                    1813.0000000 1847.00000  1.88%  59.6    3s
H 2193  1530                    1842.0000000 1847.00000  0.27%  61.0    3s
* 2197  1456              37    1847.0000002 1847.00000  0.00%  60.9    4s

Cutting planes:
  User: 242
  Gomory: 35
  Flow cover: 1
  Zero half: 16
  Lazy constraints: 19

Explored 2197 nodes (137509 simplex iterations) in 4.16 seconds (6.48 work units)
Thread count was 32 (of 32 available processors)

Solution count 6: 1847 1842 1813 ... 1717

Optimal solution found (tolerance 1.00e-04)
Best objective 1.847000000220e+03, best bound 1.847000000220e+03, gap 0.0000%

User-callback calls 5958, time in user-callback 0.46 sec
Minimal separator inequalities added: 14220
Indegree inequalities added: 14470
Passed solution check
[on. 05. april 09:00:58 +0200 2023]  done

